10	6	2
 6 10 12 14 11 13 8 2 4 3
 1 13 8 15 9 5 6 7 2 12
 14 10 12 8 6 1 9 15 5 11
 9 2 14 3 7 10 11 12 13 8
 6 12 10 11 5 7 1 4 8 2
 12 8 1 4 3 11 2 10 14 9
 8 15 12 11 6 13 1 10 9 2
 11 15 9 2 5 4 8 12 3 13
 3 7 2 15 13 4 12 9 5 11
 15 7 11 9 3 12 6 5 14 1